c description: There is a graph of 6 vertices with a 2-clique and a 2-coloring
c generator: CNFgen (0.9.0)
c copyright: (C) 2012-2020 Massimo Lauria <massimo.lauria@uniroma1.it>
c url: https://massimolauria.net/cnfgen
c
p cnf 39 110
-16 -17 0
-16 -18 0
-16 -19 0
-16 -20 0
-16 -21 0
-17 -18 0
-17 -19 0
-17 -20 0
-17 -21 0
-18 -19 0
-18 -20 0
-18 -21 0
-19 -20 0
-19 -21 0
-20 -21 0
16 17 18 19 20 21 0
-22 -23 0
-22 -24 0
-22 -25 0
-22 -26 0
-22 -27 0
-23 -24 0
-23 -25 0
-23 -26 0
-23 -27 0
-24 -25 0
-24 -26 0
-24 -27 0
-25 -26 0
-25 -27 0
-26 -27 0
22 23 24 25 26 27 0
-16 -22 0
-17 -23 0
-18 -24 0
-19 -25 0
-20 -26 0
-21 -27 0
1 -16 -23 0
1 -22 -17 0
2 -16 -24 0
2 -22 -18 0
3 -16 -25 0
3 -22 -19 0
4 -16 -26 0
4 -22 -20 0
5 -16 -27 0
5 -22 -21 0
6 -17 -24 0
6 -23 -18 0
7 -17 -25 0
7 -23 -19 0
8 -17 -26 0
8 -23 -20 0
9 -17 -27 0
9 -23 -21 0
10 -18 -25 0
10 -24 -19 0
11 -18 -26 0
11 -24 -20 0
12 -18 -27 0
12 -24 -21 0
13 -19 -26 0
13 -25 -20 0
14 -19 -27 0
14 -25 -21 0
15 -20 -27 0
15 -26 -21 0
-28 -29 0
28 29 0
-30 -31 0
30 31 0
-32 -33 0
32 33 0
-34 -35 0
34 35 0
-36 -37 0
36 37 0
-38 -39 0
38 39 0
-1 -28 -30 0
-1 -29 -31 0
-2 -28 -32 0
-2 -29 -33 0
-3 -28 -34 0
-3 -29 -35 0
-4 -28 -36 0
-4 -29 -37 0
-5 -28 -38 0
-5 -29 -39 0
-6 -30 -32 0
-6 -31 -33 0
-7 -30 -34 0
-7 -31 -35 0
-8 -30 -36 0
-8 -31 -37 0
-9 -30 -38 0
-9 -31 -39 0
-10 -32 -34 0
-10 -33 -35 0
-11 -32 -36 0
-11 -33 -37 0
-12 -32 -38 0
-12 -33 -39 0
-13 -34 -36 0
-13 -35 -37 0
-14 -34 -38 0
-14 -35 -39 0
-15 -36 -38 0
-15 -37 -39 0